# Node Net
210   1
3640   1
1330   1
  5   1
771   1
4892   2
141   2
4854   2
4846   2
1821   2
 22   3
2660   3
1960   3
4884   3
2170   3
3150   4
2870   4
 69   4
4551   4
2730   5
4841   5
4864   5
4866   5
3851   6
4835   6
4621   6
4875   7
 32   7
3151   8
4899   8
911   9
4839   9
4832  10
 27  10
